10J3M/DAT/10J3MNNX-4.dat
10 3
26.6266 5.1601
26.462 5.1441
20.7287 4.5529
26.9794 5.1942
29.0807 5.3927
24.653 4.9652
23.3689 4.8341
19.2841 4.3914
30.9798 5.566
29.2406 5.4075
50.6082