10J3M/SOL/10J3MNNX-4.sol
solution status: optimal solution found
objective value:                              83.8525
x#1#2                                               1 	(obj:0)
x#2#1                               0.435933950428915 	(obj:0)
x#2#3                               0.564066049571085 	(obj:0)
x#3#2                                               1 	(obj:0)
x#4#3                                               1 	(obj:0)
x#5#2                                               1 	(obj:0)
x#6#1                                               1 	(obj:0)
x#7#2                               0.640079764447952 	(obj:0)
x#7#3                               0.359920235552048 	(obj:0)
x#8#1                                               1 	(obj:0)
x#9#1                                               1 	(obj:0)
x#10#3                                              1 	(obj:0)
z                                             83.8525 	(obj:1)
